
Gurobi 11.0.3 (linux64) logging started Thu Apr 16 19:50:28 2026

Set parameter LogFile to value "tree/results/ctmc/ctmc_depth-2_run-4/Full MIP/LogFile_FullModel.txt"
Gurobi Optimizer version 11.0.3 build v11.0.3rc0 (linux64 - "CentOS Linux 7 (Core)")

CPU model: Intel(R) Xeon(R) Platinum 8260 CPU @ 2.40GHz, instruction set [SSE2|AVX|AVX2|AVX512]
Thread count: 96 physical cores, 192 logical processors, using up to 32 threads

Optimize a model with 31085 rows, 26623 columns and 364413 nonzeros
Model fingerprint: 0x83ba904e
Model has 4416 general constraints
Variable types: 13330 continuous, 13293 integer (13293 binary)
Coefficient statistics:
  Matrix range     [9e-04, 1e+04]
  Objective range  [9e-04, 1e+04]
  Bounds range     [1e+00, 1e+03]
  RHS range        [1e-04, 1e+03]

User MIP start produced solution with objective -675900 (0.11s)
Loaded user MIP start with objective -675900

Presolve added 4412 rows and 8832 columns
Presolve time: 1.03s
Presolved: 35497 rows, 35455 columns, 382069 nonzeros
Presolved model has 8832 SOS constraint(s)
Variable types: 13330 continuous, 22125 integer (22125 binary)
Root relaxation presolved: 31081 rows, 31039 columns, 373237 nonzeros

Deterministic concurrent LP optimizer: primal and dual simplex
Showing primal log only...

Concurrent spin time: 0.18s (can be avoided by choosing Method=3)

Solved with primal simplex

Root relaxation: objective 1.000000e+00, 18671 iterations, 0.93 seconds (0.81 work units)

    Nodes    |    Current Node    |     Objective Bounds      |     Work
 Expl Unexpl |  Obj  Depth IntInf | Incumbent    BestBd   Gap | It/Node Time

     0     0    1.00000    0 3032 -675899.52    1.00000   100%     -    2s
     0     2    1.00000    0 3032 -675899.52    1.00000   100%     -   12s
     1     4    1.00000    1 3032 -675899.52    1.00000   100%   5.0   15s
     7    16    1.00000    3 3025 -675899.52    1.00000   100%   665   28s
    15    32    1.00000    4 2948 -675899.52    1.00000   100%  1375   38s
    31    64    1.00000    5 2944 -675899.52    1.00000   100%  1227   55s
H   46    64                       0.4257246    1.00000   135%   900   55s
    63    96    1.00000    6 2942    0.42572    1.00000   135%   676   78s
    95   128    1.00000    6 2943    0.42572    1.00000   135%   489  236s
   159   192    1.00000    7 2941    0.42572    1.00000   135%   309  283s
   191   254    1.00000    8 2944    0.42572    1.00000   135%   264  298s
   253   286    1.00000    9 2943    0.42572    1.00000   135%   316  327s
   285   318    1.00000    9 2943    0.42572    1.00000   135%   296  379s
   317   914    1.00000   10 2942    0.42572    1.00000   135%   272 1054s
   913  4296    1.00000   21 2932    0.42572    1.00000   135%   196 1140s
  4295 10528    1.00000   79 2941    0.42572    1.00000   135%   131 1900s
 10527 13186    1.00000  212 2808    0.42572    1.00000   135%  71.5 2515s
 13185 18116    1.00000  266 2754    0.42572    1.00000   135%  63.6 3337s
 18116 18117    1.00000  105    6    0.42572    1.00000   135%  54.2 3352s
 18118 18118    1.00000  302 1465    0.42572    1.00000   135%  54.2 3367s
 18119 18119    1.00000  214 1465    0.42572    1.00000   135%  54.2 3452s
 18120 18123    1.00000   16 3070    0.42572    1.00000   135%  55.3 3473s
 18122 18126    1.00000   17 2488    0.42572    1.00000   135%  55.4 3476s
 18126 18133    1.00000   18 2468    0.42572    1.00000   135%  55.6 3480s
 18134 18146    1.00000   19 2469    0.42572    1.00000   135%  56.2 3486s
 18150 18173    1.00000   20 2467    0.42572    1.00000   135%  57.1 3548s
H18214 17309                       0.4266304    1.00000   134%  57.2 3600s

Explored 18246 nodes (1063522 simplex iterations) in 3600.50 seconds (3760.71 work units)
Thread count was 32 (of 192 available processors)

Solution count 3: 0.42663 0.425725 -675900 

Time limit reached
Best objective 4.266304347827e-01, best bound 1.000000000000e+00, gap 134.3949%

User-callback calls 2943519, time in user-callback 14.50 sec
